DIMACS2
10 42 54 68 18 155 145 52 112 98 111
p edge 160 670
e 0 62 2.0
e 0 88 1.0
e 0 119 1.0
e 0 41 1.0
e 1 137 1.0
e 1 3 1.0
e 1 90 1.0
e 1 9 1.0
e 2 142 3.0
e 2 97 2.0
e 2 42 26.0
e 2 144 1.0
e 3 53 1.0
e 3 6 1.0
e 3 20 1.0
e 3 124 1.0
e 4 29 1.0
e 4 55 1.0
e 4 134 1.0
e 5 157 1.0
e 5 95 2.0
e 5 60 1.0
e 5 111 27.0
e 6 44 1.0
e 6 125 1.0
e 6 146 1.0
e 6 37 1.0
e 7 120 1.0
e 7 138 1.0
e 7 119 1.0
e 7 130 2.0
e 8 49 1.0
e 8 93 1.0
e 8 150 1.0
e 8 86 1.0
e 9 132 1.0
e 9 14 1.0
e 9 50 1.0
e 9 13 1.0
e 10 33 1.0
e 10 72 1.0
e 10 16 1.0
e 10 140 1.0
e 11 102 1.0
e 11 32 2.0
e 11 148 1.0
e 11 27 1.0
e 12 88 2.0
e 12 9 1.0
e 12 96 1.0
e 12 143 1.0
e 13 12 1.0
e 13 147 1.0
e 13 116 2.0
e 13 145 44.0
e 14 151 1.0
e 14 154 2.0
e 14 158 1.0
e 14 127 1.0
e 15 81 1.0
e 15 89 1.0
e 15 70 1.0
e 15 148 2.0
e 16 128 3.0
e 16 139 1.0
e 16 66 1.0
e 16 57 1.0
e 17 8 1.0
e 17 129 1.0
e 17 144 1.0
e 17 121 2.0
e 18 37 13.0
e 18 0 23.0
e 18 153 27.0
e 18 120 45.0
e 18 42 8.0
e 18 52 2.0
e 18 111 45.0
e 18 145 12.0
e 18 155 8.0
e 18 159 1.0
e 18 68 33.0
e 18 54 49.0
e 18 98 46.0
e 18 112 43.0
e 19 9 1.0
e 19 124 2.0
e 19 133 1.0
e 19 25 1.0
e 20 26 2.0
e 20 126 1.0
e 20 98 17.0
e 20 128 1.0
e 21 35 2.0
e 21 18 6.0
e 21 114 1.0
e 21 137 1.0
e 22 152 2.0
e 22 63 1.0
e 22 71 1.0
e 22 73 2.0
e 23 118 2.0
e 23 116 1.0
e 23 140 1.0
e 23 114 2.0
e 24 93 1.0
e 24 136 1.0
e 24 3 1.0
e 24 132 1.0
e 25 120 1.0
e 25 150 1.0
e 25 62 3.0
e 25 81 1.0
e 26 68 45.0
e 26 150 2.0
e 26 136 1.0
e 26 29 1.0
e 27 106 1.0
e 27 98 49.0
e 27 36 1.0
e 27 42 14.0
e 28 74 1.0
e 28 127 2.0
e 28 89 1.0
e 28 54 38.0
e 29 91 1.0
e 29 57 2.0
e 29 115 2.0
e 29 41 1.0
e 30 59 1.0
e 30 42 29.0
e 30 52 38.0
e 31 148 1.0
e 31 122 1.0
e 31 107 1.0
e 31 17 1.0
e 32 14 1.0
e 32 70 1.0
e 32 75 1.0
e 32 131 1.0
e 33 94 1.0
e 33 79 1.0
e 33 118 1.0
e 33 83 1.0
e 34 134 1.0
e 34 109 1.0
e 34 136 1.0
e 34 64 2.0
e 35 140 1.0
e 35 11 1.0
e 35 67 1.0
e 35 82 1.0
e 36 152 1.0
e 36 114 1.0
e 36 77 1.0
e 36 138 1.0
e 37 52 26.0
e 37 8 1.0
e 37 41 1.0
e 37 134 1.0
e 38 94 2.0
e 38 145 11.0
e 38 91 1.0
e 38 7 1.0
e 39 60 2.0
e 39 88 2.0
e 39 5 2.0
e 39 110 3.0
e 40 157 1.0
e 40 103 1.0
e 40 109 1.0
e 40 134 1.0
e 41 46 1.0
e 41 71 1.0
e 41 84 1.0
e 41 78 1.0
e 42 10 40.0
e 42 113 42.0
e 42 67 24.0
e 42 88 19.0
e 42 111 29.0
e 42 145 3.0
e 42 52 37.0
e 42 112 11.0
e 42 54 27.0
e 42 155 25.0
e 43 136 2.0
e 43 115 1.0
e 43 103 1.0
e 43 140 1.0
e 44 86 1.0
e 44 89 1.0
e 44 65 1.0
e 45 19 2.0
e 45 62 1.0
e 45 36 1.0
e 45 120 1.0
e 46 36 1.0
e 46 154 1.0
e 46 84 1.0
e 46 114 1.0
e 47 132 1.0
e 47 4 1.0
e 47 62 1.0
e 47 141 1.0
e 48 66 1.0
e 48 63 2.0
e 48 59 1.0
e 48 93 1.0
e 49 89 2.0
e 49 139 1.0
e 49 9 1.0
e 49 86 1.0
e 50 15 2.0
e 50 102 1.0
e 50 121 1.0
e 50 54 18.0
e 51 140 1.0
e 51 129 1.0
e 51 146 1.0
e 51 125 2.0
e 52 146 33.0
e 52 143 33.0
e 52 39 6.0
e 52 19 8.0
e 52 98 28.0
e 52 54 28.0
e 52 68 36.0
e 52 111 8.0
e 52 145 25.0
e 52 155 19.0
e 53 126 1.0
e 53 49 1.0
e 53 21 1.0
e 53 81 2.0
e 54 152 45.0
e 54 113 7.0
e 54 74 7.0
e 54 62 42.0
e 54 68 40.0
e 55 20 1.0
e 55 43 1.0
e 55 76 1.0
e 55 12 1.0
e 56 37 1.0
e 56 58 1.0
e 56 35 1.0
e 56 23 1.0
e 57 102 1.0
e 57 42 19.0
e 57 148 2.0
e 57 94 1.0
e 58 128 2.0
e 58 24 2.0
e 58 36 1.0
e 58 99 2.0
e 59 31 2.0
e 59 10 1.0
e 59 56 1.0
e 59 154 1.0
e 60 73 1.0
e 60 13 1.0
e 60 56 1.0
e 60 65 1.0
e 61 19 1.0
e 61 14 1.0
e 61 83 2.0
e 61 145 44.0
e 62 44 2.0
e 62 55 1.0
e 62 16 1.0
e 62 153 2.0
e 63 76 1.0
e 63 2 2.0
e 63 89 1.0
e 63 67 2.0
e 64 67 2.0
e 64 110 1.0
e 64 95 1.0
e 64 115 1.0
e 65 107 1.0
e 65 49 1.0
e 65 99 1.0
e 65 108 1.0
e 66 145 2.0
e 66 17 2.0
e 66 38 1.0
e 66 84 2.0
e 67 128 1.0
e 67 23 1.0
e 67 119 1.0
e 67 24 1.0
e 68 154 1.0
e 68 142 25.0
e 68 121 24.0
e 68 15 8.0
e 68 98 2.0
e 68 111 21.0
e 68 42 19.0
e 68 112 24.0
e 68 145 11.0
e 68 155 43.0
e 69 17 1.0
e 69 151 1.0
e 69 135 1.0
e 69 85 1.0
e 70 54 1.0
e 70 105 1.0
e 70 117 1.0
e 70 46 1.0
e 71 97 1.0
e 71 83 1.0
e 71 37 1.0
e 71 149 1.0
e 72 129 2.0
e 72 89 1.0
e 72 54 8.0
e 72 19 1.0
e 73 14 2.0
e 73 35 1.0
e 73 71 1.0
e 73 9 2.0
e 74 50 2.0
e 74 2 1.0
e 74 95 1.0
e 74 136 1.0
e 75 158 1.0
e 75 45 1.0
e 75 105 1.0
e 75 14 1.0
e 76 60 1.0
e 76 53 1.0
e 76 134 1.0
e 76 147 1.0
e 77 71 1.0
e 77 144 1.0
e 77 145 34.0
e 77 126 1.0
e 78 134 1.0
e 78 106 1.0
e 78 128 1.0
e 78 90 1.0
e 79 86 1.0
e 79 35 1.0
e 79 62 1.0
e 79 83 1.0
e 80 117 2.0
e 80 86 2.0
e 80 88 1.0
e 80 146 1.0
e 81 34 1.0
e 81 87 1.0
e 81 131 1.0
e 81 63 2.0
e 82 48 1.0
e 82 80 1.0
e 82 13 1.0
e 82 7 1.0
e 83 156 1.0
e 83 19 1.0
e 83 53 1.0
e 83 140 1.0
e 84 94 1.0
e 84 6 3.0
e 84 60 2.0
e 84 52 24.0
e 85 128 1.0
e 85 133 1.0
e 85 43 2.0
e 85 73 1.0
e 86 35 1.0
e 86 94 1.0
e 86 110 2.0
e 86 62 1.0
e 87 117 2.0
e 87 54 24.0
e 87 104 1.0
e 87 8 2.0
e 88 73 1.0
e 88 10 1.0
e 88 36 1.0
e 88 140 1.0
e 89 36 1.0
e 89 151 1.0
e 89 64 2.0
e 90 41 1.0
e 90 14 2.0
e 90 104 1.0
e 90 54 43.0
e 91 108 1.0
e 91 94 2.0
e 91 59 2.0
e 91 6 2.0
e 92 111 44.0
e 92 40 1.0
e 92 98 32.0
e 92 10 1.0
e 93 147 1.0
e 93 140 1.0
e 93 6 1.0
e 94 35 2.0
e 94 121 1.0
e 94 54 26.0
e 94 40 1.0
e 95 142 1.0
e 95 156 1.0
e 95 20 2.0
e 95 9 1.0
e 96 36 2.0
e 96 127 2.0
e 96 118 1.0
e 96 57 1.0
e 97 96 1.0
e 97 15 2.0
e 97 94 1.0
e 97 117 1.0
e 98 131 7.0
e 98 102 19.0
e 98 128 2.0
e 98 137 47.0
e 98 145 45.0
e 98 111 5.0
e 98 42 49.0
e 98 112 19.0
e 98 155 49.0
e 98 54 48.0
e 99 125 2.0
e 99 13 1.0
e 99 24 1.0
e 99 158 1.0
e 100 31 1.0
e 100 138 1.0
e 100 3 1.0
e 100 86 2.0
e 101 28 2.0
e 101 3 1.0
e 101 66 1.0
e 101 144 1.0
e 102 45 1.0
e 102 124 3.0
e 102 62 1.0
e 102 10 1.0
e 103 45 1.0
e 103 81 1.0
e 103 85 1.0
e 103 35 1.0
e 104 73 2.0
e 104 38 1.0
e 104 83 1.0
e 105 54 7.0
e 105 114 1.0
e 105 99 2.0
e 105 51 1.0
e 106 126 1.0
e 106 56 1.0
e 106 112 41.0
e 106 116 1.0
e 107 106 1.0
e 107 138 1.0
e 107 143 2.0
e 107 75 1.0
e 108 105 2.0
e 108 4 1.0
e 108 156 1.0
e 108 48 1.0
e 109 111 9.0
e 109 123 1.0
e 109 96 1.0
e 109 90 2.0
e 110 138 1.0
e 110 43 1.0
e 110 42 22.0
e 110 75 2.0
e 111 118 38.0
e 111 117 15.0
e 111 91 44.0
e 111 32 32.0
e 111 145 32.0
e 111 54 44.0
e 111 112 27.0
e 111 155 5.0
e 112 92 42.0
e 112 127 9.0
e 112 70 33.0
e 112 158 49.0
e 112 52 26.0
e 112 145 1.0
e 112 155 28.0
e 112 54 8.0
e 113 11 1.0
e 113 69 1.0
e 113 74 1.0
e 114 151 1.0
e 114 152 2.0
e 114 18 48.0
e 114 136 1.0
e 115 149 1.0
e 115 112 25.0
e 115 135 1.0
e 115 134 1.0
e 116 100 1.0
e 116 36 1.0
e 116 85 1.0
e 116 76 1.0
e 117 147 2.0
e 117 124 1.0
e 117 92 1.0
e 118 88 3.0
e 118 59 1.0
e 118 154 2.0
e 118 153 1.0
e 119 142 1.0
e 119 41 2.0
e 119 9 3.0
e 119 155 20.0
e 120 142 1.0
e 120 92 2.0
e 120 132 2.0
e 120 29 1.0
e 121 40 1.0
e 121 15 1.0
e 121 51 1.0
e 121 45 1.0
e 122 116 2.0
e 122 124 1.0
e 122 52 45.0
e 122 36 1.0
e 123 7 1.0
e 123 47 1.0
e 123 23 1.0
e 123 143 1.0
e 124 138 1.0
e 124 144 1.0
e 124 66 1.0
e 124 32 2.0
e 125 24 2.0
e 125 4 2.0
e 125 23 2.0
e 125 21 2.0
e 126 118 1.0
e 126 7 2.0
e 126 6 1.0
e 126 142 1.0
e 127 38 1.0
e 127 1 2.0
e 127 66 1.0
e 127 84 1.0
e 128 90 2.0
e 128 19 1.0
e 128 15 1.0
e 128 101 1.0
e 129 99 1.0
e 129 96 2.0
e 129 37 1.0
e 129 7 1.0
e 130 105 2.0
e 130 147 1.0
e 130 112 46.0
e 130 132 1.0
e 131 105 1.0
e 131 46 1.0
e 131 0 2.0
e 131 145 3.0
e 132 80 1.0
e 132 19 1.0
e 132 108 1.0
e 132 154 1.0
e 133 2 2.0
e 133 158 3.0
e 133 136 2.0
e 133 40 1.0
e 134 79 1.0
e 134 137 1.0
e 134 24 1.0
e 134 73 1.0
e 135 85 1.0
e 135 129 1.0
e 135 131 1.0
e 135 150 1.0
e 136 120 1.0
e 136 148 1.0
e 136 39 1.0
e 136 54 8.0
e 137 52 21.0
e 137 93 1.0
e 137 19 2.0
e 138 12 1.0
e 138 8 1.0
e 138 73 1.0
e 139 120 1.0
e 139 85 1.0
e 139 45 1.0
e 139 61 1.0
e 140 96 1.0
e 140 135 1.0
e 140 116 1.0
e 140 34 1.0
e 141 68 33.0
e 141 150 1.0
e 141 30 1.0
e 141 131 1.0
e 142 21 2.0
e 142 51 1.0
e 142 42 24.0
e 142 133 1.0
e 143 150 2.0
e 143 152 1.0
e 143 30 1.0
e 143 157 2.0
e 144 102 2.0
e 144 46 1.0
e 144 96 1.0
e 144 1 1.0
e 145 86 47.0
e 145 64 13.0
e 145 53 22.0
e 146 45 1.0
e 146 50 2.0
e 146 2 3.0
e 146 7 2.0
e 147 39 2.0
e 147 89 1.0
e 147 38 1.0
e 147 155 36.0
e 148 140 1.0
e 148 150 1.0
e 148 66 2.0
e 148 92 1.0
e 149 45 1.0
e 149 118 1.0
e 149 87 1.0
e 149 16 1.0
e 150 94 1.0
e 150 71 1.0
e 150 116 1.0
e 150 19 1.0
e 151 19 1.0
e 151 115 2.0
e 151 76 1.0
e 152 138 2.0
e 152 100 1.0
e 152 154 3.0
e 152 95 2.0
e 153 97 1.0
e 153 154 2.0
e 153 48 1.0
e 153 150 1.0
e 154 83 1.0
e 154 77 3.0
e 154 84 1.0
e 154 116 1.0
e 155 7 43.0
e 155 77 40.0
e 155 145 12.0
e 155 96 46.0
e 156 59 1.0
e 156 91 1.0
e 156 29 1.0
e 156 154 1.0
e 157 83 1.0
e 157 123 1.0
e 157 9 1.0
e 157 103 1.0
e 158 74 1.0
e 158 17 1.0
e 158 16 1.0
e 159 132 2.0
e 159 149 1.0
e 159 22 1.0
e 159 53 1.0
